SCIP Status        : solving was interrupted [time limit reached]
Total Time         :    3600.01
  solving          :    3600.00
  presolving       :       0.20 (included in solving)
  reading          :       0.01
  copying          :       5.77 (13 #copies) (minimal 0.00, maximal 4.03, average 0.44)
Original Problem   :
  Problem name     : super3t
  Variables        : 1056 (40 binary, 4 integer, 0 implicit integer, 1012 continuous)
  Constraints      : 1343 initial, 1343 maximal
  Objective        : minimize, 1 non-zeros (abs.min = 1, abs.max = 1)
Presolved Problem  :
  Problem name     : t_super3t
  Variables        : 1633 (37 binary, 0 integer, 2 implicit integer, 1594 continuous)
  Constraints      : 694 initial, 696 maximal
  Objective        : minimize, 1 non-zeros (abs.min = 1, abs.max = 1)
  Nonzeros         : 2366 constraint, 163 clique table
Presolvers         :   ExecTime  SetupTime  Calls  FixedVars   AggrVars   ChgTypes  ChgBounds   AddHoles    DelCons    AddCons   ChgSides   ChgCoefs
  boundshift       :       0.00       0.00      0          0          0          0          0          0          0          0          0          0
  convertinttobin  :       0.00       0.00      0          0          0          0          0          0          0          0          0          0
  domcol           :       0.00       0.00      4          0          0          0          0          0          0          0          0          0
  dualagg          :       0.00       0.00      0          0          0          0          0          0          0          0          0          0
  dualcomp         :       0.00       0.00      4          0          0          0          0          0          0          0          0          0
  dualinfer        :       0.00       0.00      0          0          0          0          0          0          0          0          0          0
  dualsparsify     :       0.00       0.00      1          0          0          0          0          0          0          0          0          0
  gateextraction   :       0.00       0.00      0          0          0          0          0          0          0          0          0          0
  implics          :       0.00       0.00     10          0          0          0          0          0          0          0          0          0
  inttobinary      :       0.00       0.00      0          0          0          0          0          0          0          0          0          0
  qpkktref         :       0.00       0.00      0          0          0          0          0          0          0          0          0          0
  redvub           :       0.00       0.00      0          0          0          0          0          0          0          0          0          0
  sparsify         :       0.00       0.00      1          0          0          0          0          0          0          0          0          0
  stuffing         :       0.00       0.00      0          0          0          0          0          0          0          0          0          0
  trivial          :       0.00       0.00     20          0          0          0          0          0          0          0          0          0
  tworowbnd        :       0.00       0.00      0          0          0          0          0          0          0          0          0          0
  dualfix          :       0.00       0.00     20          0          0          0          0          0          0          0          0          0
  genvbounds       :       0.00       0.00      0          0          0          0          0          0          0          0          0          0
  probing          :       0.05       0.00      4          3          0          0        181          0          0          0          0          0
  pseudoobj        :       0.00       0.00      0          0          0          0          0          0          0          0          0          0
  symmetry         :       0.00       0.00      1          0          0          0          0          0          0          0          0          0
  vbounds          :       0.00       0.00      3          0          1          0          0          0          0          0          0          0
  varbound         :       0.00       0.00     19          0          0          0          0          0          3          0          3         12
  setppc           :       0.00       0.00     26          0          0          0          0          0          1          0          0          0
  and              :       0.00       0.00     15          0          0          0          0          0          0          0          0          0
  linear           :       0.01       0.00     29         24        580          0        754          0        644          0        284        398
  nonlinear        :       0.13       0.01     35          0          0          0        256          0          2          0          0       -410
  benders          :       0.00       0.00      0          0          0          0          0          0          0          0          0          0
  components       :       0.00       0.00      1          0          0          0          0          0          0          0          0          0
  root node        :          -          -      -          0          -          -        733          -          -          -          -          -
Constraints        :     Number  MaxNumber  #Separate #Propagate    #EnfoLP    #EnfoRelax  #EnfoPS    #Check   #ResProp    Cutoffs    DomReds       Cuts    Applied      Conss   Children
  benderslp        :          0          0          0          0      27209          0          0        181          0          0          0          0          0          0          0
  integral         :          0          0          0          0      27209          0          0        181          0          0         51          0          0          0        260
  varbound         :         70         70         30       6055          0          0          0        176          0          1        186          0          0          0          0
  setppc           :         14+        16         30       3004          0          0          0        135          1          1         55          1          1          0          0
  and              :          1          1         45       2359          0          0          0        135          0          0          2          1          1          0          0
  linear           :        373+       380         30      17681          0          0          0        135         26         36      17337          0          0          0          0
  nonlinear        :        236        236      32273      17645      27071          0          0        132          0         36     191891    2097051    1553573          0       6768
  benders          :          0          0          0          0          0          0          0          2          0          0          0          0          0          0          0
  countsols        :          0          0          0          0          0          0          0          2          0          0          0          0          0          0          0
  components       :          0          0          0          0          0          0          0          0          0          0          0          0          0          0          0
Constraint Timings :  TotalTime  SetupTime   Separate  Propagate     EnfoLP     EnfoPS     EnfoRelax   Check    ResProp    SB-Prop
  benderslp        :       0.01       0.00       0.00       0.00       0.01       0.00       0.00       0.00       0.00       0.00
  integral         :       0.86       0.00       0.00       0.00       0.82       0.00       0.00       0.03       0.00       0.00
  varbound         :       0.07       0.00       0.00       0.03       0.00       0.00       0.00       0.04       0.00       0.00
  setppc           :       0.00       0.00       0.00       0.00       0.00       0.00       0.00       0.00       0.00       0.00
  and              :       0.00       0.00       0.00       0.00       0.00       0.00       0.00       0.00       0.00       0.00
  linear           :       0.42       0.00       0.00       0.39       0.00       0.00       0.00       0.02       0.00       0.00
  nonlinear        :     199.57       0.01     103.56       6.30      89.63       0.00       0.00       0.04       0.00       0.02
  benders          :       0.00       0.00       0.00       0.00       0.00       0.00       0.00       0.00       0.00       0.00
  countsols        :       0.00       0.00       0.00       0.00       0.00       0.00       0.00       0.00       0.00       0.00
  components       :       0.00       0.00       0.00       0.00       0.00       0.00       0.00       0.00       0.00       0.00
Propagators        : #Propagate   #ResProp    Cutoffs    DomReds
  dualfix          :         11          0          0          0
  genvbounds       :       6309          0          0       5070
  nlobbt           :          0          0          0          0
  obbt             :         11          0          0         83
  probing          :          0          0          0          0
  pseudoobj        :      42140          0          0          0
  redcost          :      14669          0          0          0
  rootredcost      :          2          0          0          1
  symmetry         :          0          0          0          0
  vbounds          :       1097          0          0          0
Propagator Timings :  TotalTime  SetupTime   Presolve  Propagate    ResProp    SB-Prop
  dualfix          :       0.00       0.00       0.00       0.00       0.00       0.00
  genvbounds       :       0.11       0.00       0.00       0.11       0.00       0.00
  nlobbt           :       0.00       0.00       0.00       0.00       0.00       0.00
  obbt             :      20.60       0.00       0.00      20.60       0.00       0.00
  probing          :       0.05       0.00       0.05       0.00       0.00       0.00
  pseudoobj        :       0.04       0.00       0.00       0.04       0.00       0.00
  redcost          :       0.20       0.00       0.00       0.20       0.00       0.00
  rootredcost      :       0.02       0.00       0.00       0.02       0.00       0.00
  symmetry         :       0.01       0.00       0.00       0.00       0.00       0.00
  vbounds          :       0.03       0.00       0.00       0.03       0.00       0.00
Conflict Analysis  :       Time      Calls    Success    DomReds  Conflicts   Literals    Reconvs ReconvLits   Dualrays   Nonzeros   LP Iters   (pool size: [10000,10000])
  propagation      :       0.00          9          8          -          8        2.2          2        2.5          -          -          -
  infeasible LP    :       1.79        887        119          -          0        0.0          0        0.0        119       25.2          0
  bound exceed. LP :       0.82        154          0          -          0        0.0          0        0.0          0        0.0          0
  strong branching :       0.00          0          0          -          0        0.0          0        0.0          -          -          0
  pseudo solution  :       0.00          0          0          -          0        0.0          0        0.0          -          -          -
  applied globally :       0.00          -          -          0          2        2.0          -          -          0          -          -
  applied locally  :          -          -          -          0          0        0.0          -          -        119          -          -
Separators         :   ExecTime  SetupTime      Calls  RootCalls    Cutoffs    DomReds  FoundCuts ViaPoolAdd  DirectAdd    Applied ViaPoolApp  DirectApp      Conss
  cut pool         :       0.06          -       3579         67          -          -       3059       2165          -          -          -          -          -    (maximal pool size:       3043)
  aggregation      :       0.97       0.00         39         30          0          0       2486       1552         22        213        211          2          0
  > cmir           :          -          -          -          -          -          -          -       1425         22        191        189          2          -
  > flowcover      :          -          -          -          -          -          -          -        120          0         22         22          0          -
  > knapsackcover  :          -          -          -          -          -          -          -          7          0          0          0          0          -
  cgmip            :       0.00       0.00          0          0          0          0          0          0          0          0          0          0          0
  clique           :       0.00       0.00         30         30          0          0          4          4          0          0          0          0          0
  closecuts        :       0.00       0.00          0          0          0          0          0          0          0          0          0          0          0
  convexproj       :       0.00       0.00          0          0          0          0          0          0          0          0          0          0          0
  disjunctive      :       0.00       0.00          0          0          0          0          0          0          0          0          0          0          0
  eccuts           :       0.00       0.00          0          0          0          0          0          0          0          0          0          0          0
  gauge            :       0.00       0.00          0          0          0          0          0          0          0          0          0          0          0
  gomory           :       0.04       0.00         19         10          0          0        157         98         11         22         15          7          0
  > gomorymi       :          -          -          -          -          -          -          -         98         11         22         15          7          -
  > strongcg       :          -          -          -          -          -          -          -          0          0          0          0          0          -
  impliedbounds    :       0.03       0.00         39         30          0          0        327        353          0         49         49          0          0
  interminor       :       0.00       0.00          0          0          0          0          0          0          0          0          0          0          0
  intobj           :       0.00       0.00          0          0          0          0          0          0          0          0          0          0          0
  mcf              :       0.00       0.00          1          1          0          0          0          0          0          0          0          0          0
  minor            :       0.75       0.00       1461         30          0          0      15879          0      15879       5845          0       5845          0
  mixing           :       0.18       0.00       1697         30          0          0        106        147          0         23         23          0          0
  oddcycle         :       0.00       0.00          0          0          0          0          0          0          0          0          0          0          0
  rapidlearning    :       0.00       0.00          0          0          0          0          0          0          0          0          0          0          0
  rlt              :       0.01       0.00         10         10          0          0          9         10          0          9          9          0          0
  zerohalf         :       0.02       0.00         28         20          0          0          3          1          0          0          0          0          0
Cutselectors       :   ExecTime  SetupTime      Calls  RootCalls   Selected     Forced   Filtered  RootSelec   RootForc   RootFilt 
  hybrid           :       1.30       0.00      29035         38     822732        240     435051       4307          0       5966
Pricers            :   ExecTime  SetupTime      Calls       Vars
  problem variables:       0.00          -          0          0
Branching Rules    :   ExecTime  SetupTime   BranchLP  BranchExt   BranchPS    Cutoffs    DomReds       Cuts      Conss   Children
  allfullstrong    :       0.00       0.00          0          0          0          0          0          0          0          0
  cloud            :       0.00       0.00          0          0          0          0          0          0          0          0
  distribution     :       0.00       0.00          0          0          0          0          0          0          0          0
  fullstrong       :       0.00       0.00          0          0          0          0          0          0          0          0
  inference        :       0.00       0.00          0          0          0          0          0          0          0          0
  leastinf         :       0.00       0.00          0          0          0          0          0          0          0          0
  lookahead        :       0.00       0.00          0          0          0          0          0          0          0          0
  mostinf          :       0.00       0.00          0          0          0          0          0          0          0          0
  multaggr         :       0.00       0.00          0          0          0          0          0          0          0          0
  nodereopt        :       0.00       0.00          0          0          0          0          0          0          0          0
  pscost           :       0.00       0.00          0          0          0          0          0          0          0          0
  random           :       0.00       0.00          0          0          0          0          0          0          0          0
  relpscost        :       0.82       0.00        138          0          0          0         51          0          0        260
  vanillafullstrong:       0.00       0.00          0          0          0          0          0          0          0          0
Primal Heuristics  :   ExecTime  SetupTime      Calls      Found       Best
  LP solutions     :       0.00          -          -          0          0
  relax solutions  :       0.00          -          -          0          0
  pseudo solutions :       0.00          -          -          0          0
  strong branching :       0.00          -          -          0          0
  actconsdiving    :       0.00       0.00          0          0          0
  adaptivediving   :       0.43       0.00          6          0          0
  alns             :       0.51       0.00          4          0          0
  bound            :       0.00       0.00          0          0          0
  clique           :     212.19       0.00          1          0          0
  coefdiving       :       0.00       0.00          0          0          0
  completesol      :       0.00       0.00          0          0          0
  conflictdiving   :       0.33       0.00         10          0          0
  crossover        :       0.00       0.00          0          0          0
  dins             :       0.00       0.00          0          0          0
  distributiondivin:       0.37       0.00          0          0          0
  dps              :       0.00       0.00          0          0          0
  dualval          :       0.00       0.00          0          0          0
  farkasdiving     :       0.00       0.00          0          0          0
  feaspump         :       0.07       0.00          1          0          0
  fixandinfer      :       0.00       0.00          0          0          0
  fracdiving       :       0.28       0.00          9          0          0
  gins             :      63.58       0.00          3          0          0
  guideddiving     :       0.07       0.00          5          0          0
  indicator        :       0.02       0.00          0          0          0
  indicatordiving  :       0.00       0.00          0          0          0
  intdiving        :       0.00       0.00          0          0          0
  intshifting      :       0.00       0.00          1          0          0
  linesearchdiving :       0.06       0.00          9          0          0
  localbranching   :       0.00       0.00          0          0          0
  locks            :       0.06       0.00          1          0          0
  lpface           :       0.02       0.00          0          0          0
  mpec             :       9.23       0.00         11          0          0
  multistart       :       0.00       0.00          0          0          0
  mutation         :       0.00       0.00          0          0          0
  nlpdiving        :       0.00       0.00          0          0          0
  objpscostdiving  :       0.00       0.00          0          0          0
  octane           :       0.00       0.00          0          0          0
  ofins            :       0.00       0.00          0          0          0
  oneopt           :       0.01       0.00          1          0          0
  padm             :       0.00       0.00          0          0          0
  proximity        :       0.00       0.00          0          0          0
  pscostdiving     :       0.00       0.00          0          0          0
  randrounding     :       0.27       0.00         45          0          0
  rens             :       0.00       0.00          0          0          0
  reoptsols        :       0.00       0.00          0          0          0
  repair           :       0.00       0.00          0          0          0
  rins             :      79.59       0.00          5          0          0
  rootsoldiving    :       0.00       0.00          0          0          0
  rounding         :       0.12       0.00        214          0          0
  shiftandpropagate:       0.05       0.00          1          0          0
  shifting         :       0.06       0.00         68          0          0
  simplerounding   :       0.02       0.00          0          0          0
  subnlp           :       5.57       0.00          2          1          1
  trivial          :       0.00       0.00          2          0          0
  trivialnegation  :       0.00       0.00          0          0          0
  trustregion      :       0.00       0.00          0          0          0
  trysol           :       0.01       0.00          0          0          0
  twoopt           :       0.00       0.00          0          0          0
  undercover       :       0.06       0.00          1          0          0
  vbounds          :       0.00       0.00          0          0          0
  veclendiving     :       0.12       0.00          8          0          0
  zeroobj          :       0.00       0.00          0          0          0
  zirounding       :       0.28       0.00        130          0          0
  other solutions  :          -          -          -          0          -
Expressions        :   #IntEval  IntEvalTi   #RevProp  RevPropTi    DomReds    Cutoffs  #Estimate  EstimTime  Branching  #Simplify SimplifyTi Simplified
  log              :      98692       0.02        306       0.00         82          0     383872       0.05      58323        353       0.00          0
  pow              :     708958       0.12       1996       0.00        889          0    8197747       0.94    1731538       1843       0.00        257
  prod             :     357913       0.06     257697       0.10      49628          0   26477084      47.24   11095756       4384       0.00       1856
  sum              :     205054       0.06     109495       0.05      39284          2        401       0.00          0       4807       0.01       2131
  val              :          0       0.00          0       0.00          0          0          0       0.00          0          0       0.00          0
  var              :     290737       0.02          0       0.00          0          0          0       0.00          0       8115       0.00       1004
  varidx           :          0       0.00          0       0.00          0          0          0       0.00          0          0       0.00          0
Nlhdlrs            :    Detects  DetectAll DetectTime   #IntEval  IntEvalTi   #RevProp  RevPropTi    DomReds    Cutoffs   #Enforce   EnfoTime       Cuts  Branching
  soc              :          2          2       0.00          0       0.00          0       0.00          0          0          2       0.00          0          0
  convex           :         20         20       0.00          0       0.00          0       0.00          0          0      64406       0.10      64386          0
  concave          :         20         20       0.00          0       0.00          0       0.00          0          0    1069671       1.12       2120          0
  signomial        :        307        307       0.00          0       0.00          0       0.00          0          0   26001152       7.88     150014          0
  quotient         :        125        125       0.00          0       0.00          0       0.00          0          0    5354460       4.14      93555          0
  quadratic        :        187       6771       0.01     330610       0.72     320950       2.11      75889         16          0       0.00          0          0
  default          :       1593      27015       0.00    1341851       0.34     372209       1.39      89883          3   35058173      79.34    1786639          0
  bilinear         :        724        724       0.00     307829       0.04     254219       0.12        387          0   25659584       2.91        125          0
  perspective      :         14         14       0.00          0       0.00          0       0.00         78          1      40319       0.24        458         10
LP                 :       Time      Calls Iterations  Iter/call   Iter/sec  Time-0-It Calls-0-It    ItLimit
  primal LP        :     180.33       5628      10554   10554.00      58.53     179.98       5627
  dual LP          :    2524.20      51503    6105665     123.66    2418.85     120.36       2127
  lex dual LP      :       0.00          0          0       0.00          -
  barrier LP       :       0.00          0          0       0.00          -       0.00          0
  resolve instable :      11.17        123       2724      22.15     243.76
  diving/probing LP:      20.29        902     154734     171.55    7626.81
  strong branching :       0.56         33       5280     160.00    9399.25          -          -          1
    (at root node) :          -         33       5280     160.00          -
  conflict analysis:       0.00          0          0       0.00          -
NLP relaxation     :
  solve time       :       0.00 (0 calls)
  convexity        :  nonconvex (457 linear rows, 0 convex ineq., 12 nonconvex ineq., 225 nonlinear eq. or two-sided ineq.)
NLP Solvers        :  #Problems  ProblemTi    #Solves  SolveTime      #Iter  Time/Iter      #Okay #TimeLimit #IterLimit #LObjLimit #Interrupt  #NumError #EvalError  #OutOfMem #LicenseEr #OtherTerm   #GlobOpt    #LocOpt  #Feasible #LocInfeas #GlobInfea #Unbounded   #Unknown
  ipopt            :         14       0.03          8      14.55       1691       0.01          7          0          1          0          0          0          0          0          0          0          0          1          1          5          0          0          1
B&B Tree           :
  number of runs   :          1
  nodes            :       4644 (3514 internal, 1130 leaves)
  feasible leaves  :          0
  infeas. leaves   :        938
  objective leaves :        191
  nodes (total)    :       4644 (3514 internal, 1130 leaves)
  nodes left       :       2386
  max depth        :         83
  max depth (total):         83
  backtracks       :        266 (5.7%)
  early backtracks :          0 (0.0%)
  nodes exc. ref.  :          0 (0.0%)
  delayed cutoffs  :          0
  repropagations   :          1 (0 domain reductions, 0 cutoffs)
  avg switch length:       3.95
  switching time   :     126.46
Root Node          :
  First LP value   : -1.00000000000000e+00
  First LP Iters   :       1802 (19475.61 Iter/sec)
  First LP Time    :       0.09
  Final Dual Bound : -1.00000000000000e+00
  Final Root Iters :      15625
  Root LP Estimate : -9.93816978804179e-01
Solution           :
  Solutions found  :          1 (1 improvements)
  First Solution   : -6.63281265445895e-01   (in run 1, after 1540 nodes, 1180.39 seconds, depth 42, found by <zirounding>)
  Gap First Sol.   :      50.77 %
  Gap Last Sol.    :      50.77 %
  Primal Bound     : -6.63281265445895e-01   (in run 1, after 1540 nodes, 1180.39 seconds, depth 42, found by <zirounding>)
  Dual Bound       : -1.00000000000000e+00
  Gap              :      50.77 %
Integrals          :      Total       Avg%
  primal-dual      :  199511.83      55.42
  primal-ref       :          -          - (not evaluated)
  dual-ref         :          -          - (not evaluated)
